c graph4
p edge 25 65
e 1 13
e 2 19
e 3 23
e 4 14
e 5 19
e 6 12
e 7 14
e 8 15
e 9 5
e 10 6
e 11 7
e 12 1
e 13 16
e 14 18
e 15 14
e 16 1
e 17 7
e 18 4
e 19 11
e 20 20
e 21 24
e 22 2
e 23 13
e 24 5
e 25 21
e 5 6
e 13 3
e 14 11
e 23 7
e 4 25
e 21 16
e 9 12
e 9 11
e 10 3
e 11 2
e 11 21
e 12 3
e 21 2
e 4 17
e 6 6
e 11 10
e 9 22
e 15 21
e 21 18
e 13 8
e 4 10
e 4 13
e 3 5
e 8 9
e 23 18
e 5 21
e 24 7
e 18 3
e 20 3
e 25 15
e 2 6
e 10 17
e 8 20
e 16 7
e 1 8
e 7 8
e 1 24
e 10 7
e 6 7
e 13 6
